[VALIDATOR STDOUT]
Checking plan: /home/jfan5/Safety-gen/runs/benchmark/optic/grippers_20260201_172244/grippers/optic_results/grippers-n3-r27-o25-s25001.plan
Plan executed successfully - checking goal
Plan valid
Final value: 101 

Successful plans:
Value: 101
 /home/jfan5/Safety-gen/runs/benchmark/optic/grippers_20260201_172244/grippers/optic_results/grippers-n3-r27-o25-s25001.plan 101
